c Random 3-CNF over 20 variables and 60 clauses
c Generated with `cnfgen`
c (C) 2012-2016 Massimo Lauria <lauria.massimo@gmail.com>
c https://massimolauria.github.io/cnfgen
c
c COMMAND LINE: cnfgen --output tmp-3-20-60.dimacs --output-format dimacs randkcnf 3 20 60
c
c sdimacs generated by gen-sdimacs
c
p cnf 20 60
r 0.5 1 2 3 4 5 6 7 8 9 10 0
e  11 12 13 14 15 16 17 18 19 20 0
-4 -8 -13 0
-6 -17 18 0
-9 15 -18 0
14 -15 18 0
1 5 -20 0
-1 -3 -15 0
-4 7 -9 0
7 13 17 0
-4 14 19 0
6 -8 17 0
-1 16 19 0
2 4 17 0
-1 16 -19 0
-10 17 18 0
-14 15 20 0
-16 19 -20 0
-4 -6 -10 0
12 -13 -14 0
-4 15 -19 0
-9 -15 -17 0
6 16 -18 0
8 -13 -15 0
-7 8 -12 0
-2 -6 11 0
4 8 -9 0
11 -13 17 0
3 -13 17 0
7 -10 -18 0
3 -17 -18 0
9 -11 -16 0
-6 -12 -14 0
9 12 -17 0
7 -8 19 0
4 16 -20 0
-2 -5 19 0
1 10 16 0
-15 -17 -19 0
-4 8 -13 0
-3 -5 6 0
9 -10 12 0
-7 8 10 0
5 -9 13 0
-3 12 -20 0
-1 7 -15 0
-2 14 20 0
7 -11 16 0
-2 8 12 0
5 -6 16 0
-10 -12 19 0
-5 9 12 0
-3 -6 7 0
6 -7 10 0
4 -10 -13 0
5 8 18 0
-1 -9 -19 0
2 -17 20 0
8 10 -15 0
2 -7 15 0
3 7 18 0
-2 -5 20 0
